09-routing/solutions/XSH-n20-k4-38.opt.sol
Route #1: 4 14 5 2 13
Route #2: 10 3 8 16 15 1
Route #3: 7 17 9 11 20
Route #4: 6 18 12 19
Cost 991
